60
1 0 1
2 0 7
2 1 1
3 0 5
3 1 11
3 2 5
4 0 8
4 1 3
4 2 11
4 3 5
5 0 6
5 1 9
5 2 1
5 3 10
5 4 10
6 0 9
6 1 1
6 2 12
6 3 11
6 4 11
6 5 2
7 0 4
7 1 6
7 2 2
7 3 5
7 4 9
7 5 5
7 6 8
8 0 1
8 1 13
8 2 9
8 3 4
8 4 3
8 5 6
8 6 4
8 7 7
9 0 6
9 1 7
9 2 8
9 3 2
9 4 1
9 5 12
9 6 3
9 7 8
9 8 6
10 0 3
10 1 7
10 2 11
10 3 6
10 4 6
10 5 5
10 6 8
10 7 11
10 8 9
10 9 3
11 0 13
11 1 9
11 2 10
11 3 5
11 4 3
11 5 11
11 6 6
11 7 2
11 8 12
11 9 13
11 10 8
12 0 9
12 1 5
12 2 1
12 3 3
12 4 13
12 5 1
12 6 3
12 7 4
12 8 5
12 9 8
12 10 1
12 11 8
13 0 9
13 1 11
13 2 12
13 3 5
13 4 11
13 5 6
13 6 2
13 7 10
13 8 2
13 9 4
13 10 1
13 11 4
13 12 1
14 0 6
14 1 10
14 2 11
14 3 9
14 4 4
14 5 2
14 6 7
14 7 7
14 8 3
14 9 13
14 10 2
14 11 12
14 12 8
14 13 12
15 0 7
15 1 5
15 2 8
15 3 12
15 4 8
15 5 13
15 6 6
15 7 13
15 8 13
15 9 9
15 10 8
15 11 11
15 12 10
15 13 8
15 14 8
16 0 5
16 1 13
16 2 2
16 3 11
16 4 4
16 5 6
16 6 7
16 7 11
16 8 6
16 9 1
16 10 3
16 11 4
16 12 6
16 13 12
16 14 9
16 15 2
17 0 7
17 1 12
17 2 13
17 3 13
17 4 10
17 5 12
17 6 3
17 7 4
17 8 1
17 9 12
17 10 13
17 11 13
17 12 11
17 13 5
17 14 13
17 15 9
17 16 1
18 0 8
18 1 13
18 2 7
18 3 5
18 4 12
18 5 13
18 6 3
18 7 2
18 8 11
18 9 12
18 10 9
18 11 12
18 12 8
18 13 6
18 14 7
18 15 1
18 16 10
18 17 13
19 0 1
19 1 11
19 2 6
19 3 6
19 4 1
19 5 11
19 6 7
19 7 12
19 8 10
19 9 10
19 10 6
19 11 2
19 12 8
19 13 13
19 14 13
19 15 6
19 16 8
19 17 3
19 18 2
20 0 3
20 1 13
20 2 11
20 3 13
20 4 6
20 5 12
20 6 2
20 7 6
20 8 9
20 9 12
20 10 9
20 11 8
20 12 10
20 13 13
20 14 2
20 15 8
20 16 13
20 17 11
20 18 1
20 19 13
21 0 6
21 1 5
21 2 9
21 3 6
21 4 8
21 5 1
21 6 12
21 7 7
21 8 3
21 9 3
21 10 9
21 11 8
21 12 10
21 13 6
21 14 11
21 15 10
21 16 10
21 17 7
21 18 3
21 19 6
21 20 2
22 0 5
22 1 1
22 2 8
22 3 13
22 4 3
22 5 5
22 6 7
22 7 12
22 8 12
22 9 1
22 10 9
22 11 1
22 12 8
22 13 8
22 14 3
22 15 3
22 16 6
22 17 2
22 18 1
22 19 9
22 20 9
22 21 4
23 0 6
23 1 4
23 2 10
23 3 1
23 4 7
23 5 7
23 6 11
23 7 2
23 8 3
23 9 1
23 10 3
23 11 10
23 12 5
23 13 6
23 14 3
23 15 7
23 16 13
23 17 8
23 18 4
23 19 12
23 20 11
23 21 4
23 22 11
24 0 4
24 1 10
24 2 2
24 3 11
24 4 8
24 5 2
24 6 7
24 7 10
24 8 5
24 9 8
24 10 3
24 11 4
24 12 10
24 13 8
24 14 12
24 15 8
24 16 6
24 17 5
24 18 6
24 19 3
24 20 2
24 21 6
24 22 6
24 23 4
25 0 9
25 1 8
25 2 9
25 3 6
25 4 4
25 5 2
25 6 9
25 7 1
25 8 12
25 9 9
25 10 2
25 11 6
25 12 9
25 13 3
25 14 5
25 15 8
25 16 6
25 17 2
25 18 4
25 19 11
25 20 12
25 21 13
25 22 2
25 23 8
25 24 10
26 0 5
26 1 2
26 2 10
26 3 6
26 4 2
26 5 8
26 6 11
26 7 3
26 8 2
26 9 4
26 10 13
26 11 12
26 12 10
26 13 12
26 14 6
26 15 9
26 16 13
26 17 5
26 18 7
26 19 11
26 20 8
26 21 6
26 22 2
26 23 1
26 24 1
26 25 7
27 0 4
27 1 1
27 2 2
27 3 4
27 4 4
27 5 8
27 6 13
27 7 10
27 8 11
27 9 5
27 10 12
27 11 5
27 12 6
27 13 1
27 14 10
27 15 4
27 16 4
27 17 7
27 18 5
27 19 13
27 20 12
27 21 5
27 22 10
27 23 1
27 24 10
27 25 6
27 26 12
28 0 3
28 1 2
28 2 2
28 3 12
28 4 7
28 5 7
28 6 12
28 7 1
28 8 12
28 9 7
28 10 2
28 11 3
28 12 5
28 13 7
28 14 9
28 15 7
28 16 13
28 17 3
28 18 13
28 19 9
28 20 3
28 21 2
28 22 3
28 23 8
28 24 8
28 25 9
28 26 2
28 27 8
29 0 4
29 1 3
29 2 13
29 3 13
29 4 3
29 5 2
29 6 3
29 7 6
29 8 3
29 9 11
29 10 13
29 11 11
29 12 8
29 13 2
29 14 6
29 15 11
29 16 1
29 17 9
29 18 10
29 19 13
29 20 10
29 21 10
29 22 3
29 23 12
29 24 9
29 25 7
29 26 6
29 27 12
29 28 12
30 0 4
30 1 2
30 2 7
30 3 3
30 4 8
30 5 5
30 6 3
30 7 6
30 8 13
30 9 4
30 10 3
30 11 9
30 12 9
30 13 3
30 14 6
30 15 7
30 16 9
30 17 7
30 18 12
30 19 7
30 20 9
30 21 8
30 22 1
30 23 1
30 24 6
30 25 4
30 26 13
30 27 4
30 28 11
30 29 2
31 0 11
31 1 2
31 2 11
31 3 2
31 4 8
31 5 6
31 6 5
31 7 12
31 8 8
31 9 1
31 10 13
31 11 5
31 12 7
31 13 8
31 14 5
31 15 12
31 16 1
31 17 8
31 18 1
31 19 13
31 20 7
31 21 12
31 22 11
31 23 2
31 24 13
31 25 9
31 26 5
31 27 9
31 28 6
31 29 1
31 30 4
32 0 13
32 1 3
32 2 1
32 3 1
32 4 4
32 5 6
32 6 10
32 7 13
32 8 8
32 9 12
32 10 3
32 11 7
32 12 3
32 13 8
32 14 2
32 15 9
32 16 11
32 17 1
32 18 6
32 19 3
32 20 5
32 21 11
32 22 6
32 23 6
32 24 1
32 25 1
32 26 10
32 27 12
32 28 5
32 29 10
32 30 5
32 31 11
33 0 9
33 1 2
33 2 1
33 3 7
33 4 8
33 5 13
33 6 10
33 7 11
33 8 2
33 9 10
33 10 9
33 11 11
33 12 11
33 13 8
33 14 4
33 15 6
33 16 7
33 17 7
33 18 8
33 19 6
33 20 1
33 21 11
33 22 11
33 23 1
33 24 3
33 25 6
33 26 3
33 27 5
33 28 7
33 29 7
33 30 1
33 31 4
33 32 10
34 0 7
34 1 6
34 2 8
34 3 11
34 4 2
34 5 10
34 6 10
34 7 4
34 8 13
34 9 4
34 10 12
34 11 7
34 12 2
34 13 11
34 14 5
34 15 6
34 16 1
34 17 13
34 18 11
34 19 13
34 20 13
34 21 3
34 22 4
34 23 11
34 24 9
34 25 7
34 26 8
34 27 1
34 28 10
34 29 13
34 30 8
34 31 1
34 32 10
34 33 4
35 0 2
35 1 10
35 2 5
35 3 11
35 4 11
35 5 10
35 6 9
35 7 10
35 8 7
35 9 13
35 10 2
35 11 11
35 12 8
35 13 11
35 14 12
35 15 5
35 16 12
35 17 12
35 18 2
35 19 10
35 20 9
35 21 8
35 22 4
35 23 5
35 24 10
35 25 9
35 26 11
35 27 7
35 28 3
35 29 10
35 30 3
35 31 12
35 32 13
35 33 4
35 34 7
36 0 3
36 1 10
36 2 9
36 3 4
36 4 5
36 5 10
36 6 5
36 7 2
36 8 4
36 9 3
36 10 5
36 11 8
36 12 5
36 13 3
36 14 9
36 15 11
36 16 3
36 17 11
36 18 6
36 19 10
36 20 3
36 21 11
36 22 12
36 23 11
36 24 7
36 25 8
36 26 5
36 27 3
36 28 11
36 29 7
36 30 12
36 31 2
36 32 5
36 33 1
36 34 7
36 35 12
37 0 8
37 1 8
37 2 12
37 3 3
37 4 12
37 5 4
37 6 11
37 7 7
37 8 11
37 9 5
37 10 4
37 11 3
37 12 8
37 13 10
37 14 7
37 15 10
37 16 3
37 17 8
37 18 5
37 19 9
37 20 10
37 21 2
37 22 5
37 23 6
37 24 13
37 25 10
37 26 3
37 27 8
37 28 3
37 29 11
37 30 4
37 31 3
37 32 9
37 33 11
37 34 4
37 35 7
37 36 8
38 0 2
38 1 10
38 2 5
38 3 10
38 4 1
38 5 13
38 6 5
38 7 12
38 8 10
38 9 7
38 10 1
38 11 6
38 12 8
38 13 13
38 14 2
38 15 5
38 16 12
38 17 10
38 18 9
38 19 10
38 20 5
38 21 11
38 22 5
38 23 11
38 24 7
38 25 9
38 26 11
38 27 5
38 28 5
38 29 10
38 30 1
38 31 3
38 32 4
38 33 1
38 34 4
38 35 7
38 36 3
38 37 8
39 0 7
39 1 10
39 2 13
39 3 5
39 4 3
39 5 13
39 6 10
39 7 13
39 8 1
39 9 2
39 10 8
39 11 9
39 12 6
39 13 8
39 14 1
39 15 11
39 16 12
39 17 7
39 18 7
39 19 7
39 20 7
39 21 7
39 22 1
39 23 5
39 24 3
39 25 5
39 26 9
39 27 8
39 28 12
39 29 1
39 30 7
39 31 5
39 32 1
39 33 1
39 34 1
39 35 2
39 36 2
39 37 2
39 38 1
40 0 3
40 1 9
40 2 8
40 3 4
40 4 4
40 5 8
40 6 6
40 7 8
40 8 8
40 9 13
40 10 13
40 11 10
40 12 4
40 13 1
40 14 12
40 15 9
40 16 9
40 17 6
40 18 9
40 19 1
40 20 1
40 21 10
40 22 3
40 23 2
40 24 8
40 25 11
40 26 6
40 27 9
40 28 4
40 29 9
40 30 8
40 31 3
40 32 1
40 33 6
40 34 9
40 35 2
40 36 2
40 37 3
40 38 8
40 39 10
41 0 3
41 1 12
41 2 3
41 3 6
41 4 13
41 5 9
41 6 8
41 7 11
41 8 10
41 9 12
41 10 11
41 11 11
41 12 5
41 13 2
41 14 5
41 15 13
41 16 5
41 17 12
41 18 6
41 19 9
41 20 10
41 21 5
41 22 10
41 23 2
41 24 1
41 25 9
41 26 13
41 27 8
41 28 13
41 29 12
41 30 3
41 31 1
41 32 7
41 33 8
41 34 1
41 35 7
41 36 11
41 37 1
41 38 12
41 39 4
41 40 7
42 0 5
42 1 2
42 2 4
42 3 9
42 4 5
42 5 3
42 6 13
42 7 11
42 8 7
42 9 8
42 10 12
42 11 3
42 12 2
42 13 5
42 14 11
42 15 6
42 16 2
42 17 8
42 18 10
42 19 8
42 20 11
42 21 3
42 22 3
42 23 4
42 24 9
42 25 13
42 26 12
42 27 7
42 28 8
42 29 10
42 30 5
42 31 6
42 32 5
42 33 12
42 34 1
42 35 7
42 36 1
42 37 5
42 38 5
42 39 7
42 40 5
42 41 4
43 0 11
43 1 1
43 2 11
43 3 4
43 4 13
43 5 10
43 6 9
43 7 5
43 8 3
43 9 13
43 10 13
43 11 9
43 12 11
43 13 3
43 14 8
43 15 9
43 16 4
43 17 5
43 18 7
43 19 10
43 20 8
43 21 3
43 22 4
43 23 7
43 24 9
43 25 12
43 26 1
43 27 13
43 28 4
43 29 4
43 30 5
43 31 9
43 32 5
43 33 12
43 34 2
43 35 4
43 36 7
43 37 12
43 38 12
43 39 4
43 40 7
43 41 7
43 42 3
44 0 7
44 1 4
44 2 7
44 3 2
44 4 9
44 5 6
44 6 11
44 7 13
44 8 4
44 9 5
44 10 8
44 11 12
44 12 11
44 13 6
44 14 13
44 15 12
44 16 9
44 17 8
44 18 7
44 19 5
44 20 11
44 21 13
44 22 4
44 23 8
44 24 5
44 25 5
44 26 2
44 27 13
44 28 3
44 29 4
44 30 4
44 31 9
44 32 6
44 33 1
44 34 8
44 35 2
44 36 1
44 37 7
44 38 11
44 39 3
44 40 8
44 41 9
44 42 8
44 43 1
45 0 12
45 1 13
45 2 3
45 3 8
45 4 9
45 5 8
45 6 6
45 7 11
45 8 13
45 9 3
45 10 2
45 11 4
45 12 8
45 13 1
45 14 7
45 15 3
45 16 8
45 17 2
45 18 11
45 19 4
45 20 2
45 21 9
45 22 6
45 23 11
45 24 1
45 25 2
45 26 12
45 27 12
45 28 6
45 29 9
45 30 11
45 31 1
45 32 9
45 33 8
45 34 9
45 35 1
45 36 13
45 37 5
45 38 13
45 39 5
45 40 9
45 41 7
45 42 11
45 43 6
45 44 11
46 0 7
46 1 10
46 2 6
46 3 1
46 4 12
46 5 11
46 6 1
46 7 5
46 8 13
46 9 11
46 10 13
46 11 10
46 12 6
46 13 7
46 14 12
46 15 6
46 16 6
46 17 5
46 18 11
46 19 6
46 20 10
46 21 2
46 22 3
46 23 8
46 24 13
46 25 5
46 26 7
46 27 8
46 28 7
46 29 6
46 30 11
46 31 5
46 32 4
46 33 7
46 34 1
46 35 11
46 36 3
46 37 11
46 38 12
46 39 4
46 40 5
46 41 5
46 42 3
46 43 10
46 44 4
46 45 10
47 0 12
47 1 1
47 2 5
47 3 2
47 4 1
47 5 11
47 6 9
47 7 1
47 8 2
47 9 9
47 10 5
47 11 8
47 12 5
47 13 5
47 14 2
47 15 9
47 16 12
47 17 5
47 18 13
47 19 10
47 20 8
47 21 13
47 22 12
47 23 10
47 24 13
47 25 5
47 26 11
47 27 7
47 28 11
47 29 10
47 30 6
47 31 4
47 32 5
47 33 13
47 34 5
47 35 2
47 36 3
47 37 4
47 38 12
47 39 4
47 40 2
47 41 7
47 42 11
47 43 8
47 44 1
47 45 2
47 46 11
48 0 3
48 1 13
48 2 11
48 3 13
48 4 6
48 5 3
48 6 5
48 7 11
48 8 7
48 9 11
48 10 11
48 11 3
48 12 2
48 13 3
48 14 5
48 15 11
48 16 8
48 17 5
48 18 1
48 19 10
48 20 2
48 21 13
48 22 8
48 23 4
48 24 6
48 25 12
48 26 1
48 27 12
48 28 3
48 29 11
48 30 13
48 31 9
48 32 12
48 33 6
48 34 13
48 35 12
48 36 1
48 37 6
48 38 13
48 39 9
48 40 12
48 41 6
48 42 7
48 43 2
48 44 5
48 45 13
48 46 8
48 47 7
49 0 11
49 1 6
49 2 9
49 3 10
49 4 6
49 5 1
49 6 9
49 7 3
49 8 10
49 9 13
49 10 9
49 11 10
49 12 5
49 13 1
49 14 12
49 15 7
49 16 10
49 17 7
49 18 2
49 19 10
49 20 9
49 21 12
49 22 2
49 23 4
49 24 1
49 25 9
49 26 6
49 27 6
49 28 10
49 29 13
49 30 8
49 31 11
49 32 8
49 33 1
49 34 8
49 35 4
49 36 8
49 37 10
49 38 6
49 39 9
49 40 10
49 41 5
49 42 6
49 43 3
49 44 8
49 45 9
49 46 6
49 47 2
49 48 2
50 0 2
50 1 3
50 2 12
50 3 2
50 4 12
50 5 1
50 6 10
50 7 3
50 8 13
50 9 3
50 10 3
50 11 6
50 12 8
50 13 4
50 14 11
50 15 4
50 16 2
50 17 9
50 18 7
50 19 11
50 20 10
50 21 1
50 22 6
50 23 10
50 24 3
50 25 7
50 26 12
50 27 5
50 28 13
50 29 2
50 30 5
50 31 1
50 32 6
50 33 7
50 34 6
50 35 13
50 36 1
50 37 2
50 38 4
50 39 5
50 40 2
50 41 2
50 42 13
50 43 9
50 44 11
50 45 13
50 46 1
50 47 2
50 48 3
50 49 4
51 0 10
51 1 12
51 2 5
51 3 11
51 4 6
51 5 10
51 6 8
51 7 12
51 8 6
51 9 6
51 10 4
51 11 3
51 12 7
51 13 3
51 14 3
51 15 3
51 16 1
51 17 3
51 18 1
51 19 11
51 20 1
51 21 10
51 22 9
51 23 8
51 24 11
51 25 4
51 26 7
51 27 2
51 28 2
51 29 6
51 30 6
51 31 1
51 32 6
51 33 9
51 34 11
51 35 10
51 36 6
51 37 11
51 38 13
51 39 13
51 40 9
51 41 12
51 42 7
51 43 7
51 44 2
51 45 3
51 46 13
51 47 2
51 48 8
51 49 5
51 50 4
52 0 12
52 1 9
52 2 10
52 3 10
52 4 11
52 5 6
52 6 6
52 7 5
52 8 12
52 9 5
52 10 9
52 11 12
52 12 9
52 13 13
52 14 11
52 15 6
52 16 6
52 17 11
52 18 12
52 19 13
52 20 5
52 21 7
52 22 11
52 23 9
52 24 10
52 25 3
52 26 7
52 27 4
52 28 6
52 29 11
52 30 1
52 31 4
52 32 11
52 33 9
52 34 5
52 35 11
52 36 5
52 37 7
52 38 6
52 39 4
52 40 12
52 41 7
52 42 10
52 43 6
52 44 7
52 45 13
52 46 4
52 47 7
52 48 5
52 49 2
52 50 7
52 51 13
53 0 6
53 1 9
53 2 8
53 3 2
53 4 7
53 5 11
53 6 13
53 7 10
53 8 4
53 9 11
53 10 12
53 11 10
53 12 4
53 13 8
53 14 13
53 15 1
53 16 13
53 17 11
53 18 2
53 19 6
53 20 11
53 21 5
53 22 11
53 23 6
53 24 13
53 25 2
53 26 5
53 27 9
53 28 10
53 29 9
53 30 5
53 31 13
53 32 12
53 33 3
53 34 9
53 35 5
53 36 10
53 37 9
53 38 8
53 39 3
53 40 3
53 41 3
53 42 6
53 43 11
53 44 4
53 45 2
53 46 13
53 47 4
53 48 1
53 49 2
53 50 12
53 51 5
53 52 1
54 0 6
54 1 2
54 2 4
54 3 8
54 4 1
54 5 12
54 6 2
54 7 5
54 8 5
54 9 12
54 10 11
54 11 8
54 12 2
54 13 11
54 14 6
54 15 6
54 16 7
54 17 1
54 18 10
54 19 2
54 20 11
54 21 10
54 22 2
54 23 5
54 24 6
54 25 5
54 26 6
54 27 8
54 28 11
54 29 11
54 30 3
54 31 3
54 32 9
54 33 4
54 34 13
54 35 5
54 36 8
54 37 3
54 38 7
54 39 10
54 40 3
54 41 2
54 42 5
54 43 2
54 44 2
54 45 10
54 46 2
54 47 2
54 48 5
54 49 6
54 50 4
54 51 12
54 52 8
54 53 4
55 0 2
55 1 6
55 2 13
55 3 6
55 4 5
55 5 7
55 6 7
55 7 12
55 8 10
55 9 3
55 10 12
55 11 3
55 12 1
55 13 7
55 14 10
55 15 9
55 16 6
55 17 5
55 18 2
55 19 1
55 20 9
55 21 7
55 22 4
55 23 7
55 24 13
55 25 13
55 26 8
55 27 13
55 28 2
55 29 13
55 30 1
55 31 5
55 32 13
55 33 7
55 34 13
55 35 8
55 36 4
55 37 6
55 38 9
55 39 4
55 40 11
55 41 5
55 42 10
55 43 10
55 44 13
55 45 5
55 46 13
55 47 5
55 48 4
55 49 13
55 50 4
55 51 10
55 52 13
55 53 11
55 54 10
56 0 4
56 1 7
56 2 13
56 3 1
56 4 6
56 5 10
56 6 11
56 7 13
56 8 10
56 9 12
56 10 4
56 11 6
56 12 8
56 13 10
56 14 8
56 15 7
56 16 1
56 17 4
56 18 7
56 19 2
56 20 3
56 21 2
56 22 6
56 23 6
56 24 9
56 25 9
56 26 3
56 27 4
56 28 6
56 29 4
56 30 10
56 31 13
56 32 1
56 33 5
56 34 12
56 35 4
56 36 2
56 37 7
56 38 1
56 39 2
56 40 5
56 41 4
56 42 9
56 43 3
56 44 11
56 45 12
56 46 13
56 47 5
56 48 1
56 49 2
56 50 7
56 51 1
56 52 2
56 53 10
56 54 10
56 55 1
57 0 2
57 1 4
57 2 8
57 3 3
57 4 9
57 5 12
57 6 6
57 7 4
57 8 4
57 9 6
57 10 9
57 11 9
57 12 4
57 13 11
57 14 7
57 15 9
57 16 2
57 17 11
57 18 8
57 19 6
57 20 5
57 21 9
57 22 5
57 23 5
57 24 4
57 25 9
57 26 10
57 27 12
57 28 13
57 29 9
57 30 1
57 31 7
57 32 12
57 33 4
57 34 9
57 35 12
57 36 8
57 37 3
57 38 2
57 39 5
57 40 6
57 41 2
57 42 4
57 43 7
57 44 11
57 45 8
57 46 8
57 47 5
57 48 6
57 49 10
57 50 10
57 51 6
57 52 13
57 53 8
57 54 1
57 55 3
57 56 8
58 0 10
58 1 13
58 2 9
58 3 7
58 4 12
58 5 9
58 6 11
58 7 6
58 8 7
58 9 3
58 10 12
58 11 13
58 12 6
58 13 7
58 14 12
58 15 11
58 16 4
58 17 8
58 18 4
58 19 13
58 20 3
58 21 3
58 22 8
58 23 10
58 24 10
58 25 1
58 26 12
58 27 7
58 28 7
58 29 1
58 30 13
58 31 8
58 32 1
58 33 12
58 34 3
58 35 11
58 36 1
58 37 13
58 38 12
58 39 4
58 40 4
58 41 8
58 42 13
58 43 6
58 44 10
58 45 12
58 46 10
58 47 2
58 48 10
58 49 5
58 50 10
58 51 1
58 52 9
58 53 13
58 54 6
58 55 7
58 56 7
58 57 4
59 0 2
59 1 1
59 2 6
59 3 5
59 4 5
59 5 13
59 6 13
59 7 12
59 8 13
59 9 12
59 10 9
59 11 4
59 12 6
59 13 7
59 14 13
59 15 4
59 16 11
59 17 6
59 18 12
59 19 5
59 20 9
59 21 1
59 22 1
59 23 7
59 24 1
59 25 13
59 26 10
59 27 7
59 28 13
59 29 7
59 30 8
59 31 1
59 32 4
59 33 12
59 34 7
59 35 1
59 36 9
59 37 6
59 38 10
59 39 8
59 40 9
59 41 13
59 42 11
59 43 7
59 44 5
59 45 8
59 46 11
59 47 11
59 48 7
59 49 13
59 50 10
59 51 9
59 52 13
59 53 2
59 54 12
59 55 8
59 56 1
59 57 12
59 58 3
